NAME : N60ft205.dat.11841.tour
COMMENT : Length = 11841
COMMENT : Found by LKH [Keld Helsgaun] Tue May  2 05:19:42 2017
TYPE : TOUR
DIMENSION : 60
TOUR_SECTION
1
55
4
59
47
36
60
10
13
30
35
28
2
33
40
26
18
25
12
14
38
56
45
46
23
17
22
43
29
3
19
48
7
41
54
42
15
51
5
44
34
58
57
37
31
27
8
32
20
24
39
9
53
49
11
16
50
6
52
21
-1
EOF
